11000000011100001000100100000000000000101001000000,00100000000001010000000011001100001010010000010110,00000000000000000000000000000000000000000000000000,00000000000000000000000000000000000000000000000000,00000000000000000000000000000000000000000000000000,00000000000000000000000000000000000000000000000000,00000111100000000100001000000000010000000010001000,00000000000000000000000000000000000000000000000000,00011000000010100011010000110011100101000100100001,00000000000000000000000000000000000000000000000000,[5, 9, 0, 0, 0, 0, 0, 0, 0, 5, 5, 9, 0, 0, 0, 0, 9, 0, 0, 0, 9, 0, 0, 5, 0, 0, 0, 0, 0, 0, 0, 0, 0, 0, 0, 0, 0, 0, 5, 0, 9, 0, 0, 9, 0, 0, 0, 0, 0, 0],[0, 0, 3, 0, 0, 0, 0, 0, 0, 0, 0, 0, 0, 3, 0, 4, 0, 0, 0, 0, 0, 0, 0, 0, 3, 8, 0, 0, 3, 4, 0, 0, 0, 0, 8, 0, 4, 0, 0, 8, 0, 0, 0, 0, 0, 4, 0, 8, 3, 0],[],[],[],[],[0, 0, 0, 0, 0, 1, 6, 6, 1, 0, 0, 0, 0, 0, 0, 0, 0, 6, 0, 0, 0, 0, 1, 0, 0, 0, 0, 0, 0, 0, 0, 0, 0, 1, 0, 0, 0, 0, 0, 0, 0, 0, 6, 0, 0, 0, 6, 0, 0, 0],[],[0, 0, 0, 7, 2, 0, 0, 0, 0, 0, 0, 0, 10, 0, 7, 0, 0, 0, 7, 10, 0, 2, 0, 0, 0, 0, 7, 7, 0, 0, 2, 10, 7, 0, 0, 2, 0, 10, 0, 0, 0, 10, 0, 0, 2, 0, 0, 0, 0, 7],[][8, 5, 22, 33],[4, 21, 44, 30, 35],[13, 24, 28, 2, 48],[29, 36, 15, 45],[9, 0, 38, 10, 23],[46, 42, 17, 6, 7],[49, 32, 27, 3, 26, 14, 18],[34, 47, 39, 25],[16, 40, 20, 43, 1, 11],[37, 12, 31, 19, 41]
10000000010100001000100100000000000000101001000000,00100110000001010000000011001100001010010000010110,00000000000000000000000000000000000000000000000000,00000000000000000000000000000000000000000000000000,01010000001000000000010000100000000100000100100001,00000000000000000000000000000000000000000000000000,00000000000000000000000000000000000000000000000000,00000000000000000000000000000000000000000000000000,00001001100010100111001000010011110001000010001000,00000000000000000000000000000000000000000000000000,[5, 0, 0, 0, 0, 0, 0, 0, 0, 2, 0, 2, 0, 0, 0, 0, 5, 0, 0, 0, 2, 0, 0, 5, 0, 0, 0, 0, 0, 0, 0, 0, 0, 0, 0, 0, 0, 0, 5, 0, 5, 0, 0, 2, 0, 0, 0, 0, 0, 0],[0, 0, 9, 0, 0, 4, 4, 0, 0, 0, 0, 0, 0, 10, 0, 4, 0, 0, 0, 0, 0, 0, 0, 0, 4, 4, 0, 0, 4, 10, 0, 0, 0, 0, 4, 0, 9, 0, 0, 9, 0, 0, 0, 0, 0, 9, 0, 9, 9, 0],[],[],[0, 7, 0, 6, 0, 0, 0, 0, 0, 0, 6, 0, 0, 0, 0, 0, 0, 0, 0, 0, 0, 6, 0, 0, 0, 0, 7, 0, 0, 0, 0, 0, 0, 0, 0, 7, 0, 0, 0, 0, 0, 6, 0, 0, 6, 0, 0, 0, 0, 7],[],[],[],[0, 0, 0, 0, 8, 0, 0, 3, 1, 0, 0, 0, 3, 0, 3, 0, 0, 1, 8, 8, 0, 0, 1, 0, 0, 0, 0, 1, 0, 0, 3, 3, 8, 1, 0, 0, 0, 3, 0, 0, 0, 0, 3, 0, 0, 0, 1, 0, 0, 0],[][27, 22, 8, 33, 17, 46],[20, 9, 11, 43],[37, 42, 12, 31, 14, 30, 7],[34, 15, 28, 25, 24, 6, 5],[40, 23, 0, 16, 38],[3, 44, 41, 21, 10],[35, 1, 26, 49],[18, 4, 19, 32],[47, 2, 45, 39, 36, 48],[29, 13]
00000000000000000000000000000000000000000000000000,00000000000000000000000000000000000000000000000000,00000000000000000000000000000000000000000000000000,00000110000001000000000011011100000001010000010100,01000000000000000000000000000000001010000000000010,10100000010100011000100100000000000000101001000000,00000001100000000000001000000000000000000000001000,00001000000010100111000000000011010000000010100000,00000000000000000000000000000000000000000000000000,00010000001000000000010000100000100100000100000001,[],[],[],[0, 0, 0, 0, 0, 9, 9, 0, 0, 0, 0, 0, 0, 9, 0, 0, 0, 0, 0, 0, 0, 0, 0, 0, 9, 5, 0, 5, 9, 9, 0, 0, 0, 0, 0, 0, 0, 9, 0, 5, 0, 0, 0, 0, 0, 5, 0, 5, 0, 0],[0, 7, 0, 0, 0, 0, 0, 0, 0, 0, 0, 0, 0, 0, 0, 0, 0, 0, 0, 0, 0, 0, 0, 0, 0, 0, 0, 0, 0, 0, 0, 0, 0, 0, 7, 0, 7, 0, 0, 0, 0, 0, 0, 0, 0, 0, 0, 0, 7, 0],[6, 0, 4, 0, 0, 0, 0, 0, 0, 6, 0, 4, 0, 0, 0, 4, 4, 0, 0, 0, 6, 0, 0, 6, 0, 0, 0, 0, 0, 0, 0, 0, 0, 0, 0, 0, 0, 0, 6, 0, 6, 0, 0, 4, 0, 0, 0, 0, 0, 0],[0, 0, 0, 0, 0, 0, 0, 1, 1, 0, 0, 0, 0, 0, 0, 0, 0, 0, 0, 0, 0, 0, 1, 0, 0, 0, 0, 0, 0, 0, 0, 0, 0, 0, 0, 0, 0, 0, 0, 0, 0, 0, 0, 0, 0, 0, 1, 0, 0, 0],[0, 0, 0, 0, 3, 0, 0, 0, 0, 0, 0, 0, 2, 0, 2, 0, 0, 3, 3, 3, 0, 0, 0, 0, 0, 0, 0, 0, 0, 0, 2, 3, 0, 3, 0, 0, 0, 0, 0, 0, 0, 0, 2, 0, 3, 0, 0, 0, 0, 0],[],[0, 0, 0, 10, 0, 0, 0, 0, 0, 0, 10, 0, 0, 0, 0, 0, 0, 0, 0, 0, 0, 8, 0, 0, 0, 0, 8, 0, 0, 0, 0, 0, 10, 0, 0, 8, 0, 0, 0, 0, 0, 10, 0, 0, 0, 0, 0, 0, 0, 10][22, 8, 46, 7],[14, 42, 12, 30],[4, 31, 17, 18, 33, 44, 19],[15, 11, 43, 16, 2],[25, 27, 47, 45, 39],[9, 40, 23, 38, 0, 20],[34, 48, 36, 1],[21, 26, 35],[37, 13, 29, 28, 5, 24, 6],[10, 3, 41, 32, 49]
11010000011100101000110100100010100100101101100001,00100000000001010000000011011100001011010000010110,00000000000000000000000000000000000000000000000000,00000000000000000000000000000000000000000000000000,00000000000000000000000000000000000000000000000000,00000000000000000000000000000000000000000000000000,00001111100010000111001000000001010000000010001000,00000000000000000000000000000000000000000000000000,00000000000000000000000000000000000000000000000000,00000000000000000000000000000000000000000000000000,[6, 10, 0, 4, 0, 0, 0, 0, 0, 9, 10, 9, 0, 0, 4, 0, 9, 0, 0, 0, 4, 4, 0, 6, 0, 0, 4, 0, 0, 0, 10, 0, 6, 0, 0, 4, 0, 0, 6, 0, 9, 9, 0, 9, 10, 0, 0, 0, 0, 10],[0, 0, 3, 0, 0, 0, 0, 0, 0, 0, 0, 0, 0, 7, 0, 7, 0, 0, 0, 0, 0, 0, 0, 0, 7, 8, 0, 7, 8, 3, 0, 0, 0, 0, 3, 0, 7, 3, 0, 3, 0, 0, 0, 0, 0, 3, 0, 8, 7, 0],[],[],[],[],[0, 0, 0, 0, 2, 1, 1, 5, 1, 0, 0, 0, 2, 0, 0, 0, 0, 2, 1, 2, 0, 0, 5, 0, 0, 0, 0, 0, 0, 0, 0, 5, 0, 1, 0, 0, 0, 0, 0, 0, 0, 0, 5, 0, 0, 0, 1, 0, 0, 0],[],[],[][8, 46, 5, 6, 18, 33],[4, 19, 12, 17],[2, 37, 45, 39, 29, 34],[35, 3, 21, 26, 20, 14],[7, 31, 22, 42],[0, 38, 32, 23],[36, 27, 24, 13, 48, 15],[25, 47, 28],[43, 9, 16, 40, 11, 41],[10, 44, 30, 49, 1]
00000000000000000000000000000000000000000000000000,00100000000001010000100011011100001010010000010110,10000000011100001000000100000000000000101001000000,00000000000000000000000000000000000000000000000000,01011000000010100001010000100011100101000100100001,00000000000000000000000000000000000000000000000000,00000111100000000110001000000000010000000010001000,00000000000000000000000000000000000000000000000000,00000000000000000000000000000000000000000000000000,00000000000000000000000000000000000000000000000000,[],[0, 0, 2, 0, 0, 0, 0, 0, 0, 0, 0, 0, 0, 6, 0, 2, 0, 0, 0, 0, 6, 0, 0, 0, 6, 6, 0, 6, 4, 4, 0, 0, 0, 0, 4, 0, 4, 0, 0, 6, 0, 0, 0, 0, 0, 4, 0, 2, 4, 0],[8, 0, 0, 0, 0, 0, 0, 0, 0, 8, 8, 1, 0, 0, 0, 0, 1, 0, 0, 0, 0, 0, 0, 1, 0, 0, 0, 0, 0, 0, 0, 0, 0, 0, 0, 0, 0, 0, 8, 0, 1, 0, 0, 1, 0, 0, 0, 0, 0, 0],[],[0, 5, 0, 3, 7, 0, 0, 0, 0, 0, 0, 0, 3, 0, 7, 0, 0, 0, 0, 7, 0, 7, 0, 0, 0, 0, 5, 0, 0, 0, 7, 3, 5, 0, 0, 5, 0, 3, 0, 0, 0, 5, 0, 0, 3, 0, 0, 0, 0, 3],[],[0, 0, 0, 0, 0, 10, 9, 9, 9, 0, 0, 0, 0, 0, 0, 0, 0, 9, 10, 0, 0, 0, 10, 0, 0, 0, 0, 0, 0, 0, 0, 0, 0, 9, 0, 0, 0, 0, 0, 0, 0, 0, 9, 0, 0, 0, 10, 0, 0, 0],[],[],[][43, 23, 16, 11, 40],[2, 15, 47],[12, 31, 37, 44, 49, 3],[36, 45, 28, 48, 34, 29],[41, 1, 32, 26, 35],[39, 24, 13, 20, 25, 27],[30, 4, 21, 19, 14],[38, 10, 9, 0],[33, 17, 6, 7, 8, 42],[18, 22, 46, 5]
10000000010000000000100100000000000000000001000000,00100000000001010000000000001100001010010000010110,00000000000100001000000000000000000000101000000000,00000110000000000000000011010000000001000000000000,00000000000000000000000000000000000000000000000000,00000000000000000000000000000000000000000000000000,00000001100000000000001000000000000000000000001000,00001000000010100111000000000011010000000010100000,00000000000000000000000000000000000000000000000000,01010000001000000000010000100000100100000100000001,[5, 0, 0, 0, 0, 0, 0, 0, 0, 5, 0, 0, 0, 0, 0, 0, 0, 0, 0, 0, 5, 0, 0, 5, 0, 0, 0, 0, 0, 0, 0, 0, 0, 0, 0, 0, 0, 0, 0, 0, 0, 0, 0, 5, 0, 0, 0, 0, 0, 0],[0, 0, 6, 0, 0, 0, 0, 0, 0, 0, 0, 0, 0, 6, 0, 6, 0, 0, 0, 0, 0, 0, 0, 0, 0, 0, 0, 0, 6, 3, 0, 0, 0, 0, 3, 0, 3, 0, 0, 3, 0, 0, 0, 0, 0, 3, 0, 3, 6, 0],[0, 0, 0, 0, 0, 0, 0, 0, 0, 0, 0, 10, 0, 0, 0, 0, 10, 0, 0, 0, 0, 0, 0, 0, 0, 0, 0, 0, 0, 0, 0, 0, 0, 0, 0, 0, 0, 0, 10, 0, 10, 0, 0, 0, 0, 0, 0, 0, 0, 0],[0, 0, 0, 0, 0, 9, 9, 0, 0, 0, 0, 0, 0, 0, 0, 0, 0, 0, 0, 0, 0, 0, 0, 0, 9, 9, 0, 9, 0, 0, 0, 0, 0, 0, 0, 0, 0, 9, 0, 0, 0, 0, 0, 0, 0, 0, 0, 0, 0, 0],[],[],[0, 0, 0, 0, 0, 0, 0, 7, 7, 0, 0, 0, 0, 0, 0, 0, 0, 0, 0, 0, 0, 0, 7, 0, 0, 0, 0, 0, 0, 0, 0, 0, 0, 0, 0, 0, 0, 0, 0, 0, 0, 0, 0, 0, 0, 0, 7, 0, 0, 0],[0, 0, 0, 0, 2, 0, 0, 0, 0, 0, 0, 0, 4, 0, 4, 0, 0, 4, 4, 2, 0, 0, 0, 0, 0, 0, 0, 0, 0, 0, 2, 4, 0, 4, 0, 0, 0, 0, 0, 0, 0, 0, 2, 0, 4, 0, 0, 0, 0, 0],[],[0, 1, 0, 1, 0, 0, 0, 0, 0, 0, 1, 0, 0, 0, 0, 0, 0, 0, 0, 0, 0, 1, 0, 0, 0, 0, 1, 0, 0, 0, 0, 0, 8, 0, 0, 8, 0, 0, 0, 0, 0, 8, 0, 0, 0, 0, 0, 0, 0, 8][3, 21, 10, 26, 1],[42, 19, 4, 30],[39, 45, 29, 34, 47, 36],[33, 12, 31, 18, 14, 44, 17],[9, 43, 23, 0, 20],[15, 13, 48, 28, 2],[7, 46, 8, 22],[49, 35, 41, 32],[27, 25, 37, 24, 6, 5],[11, 38, 16, 40]
10100000010000010000100100000000001010000001000010,00000000000000000000000000000000000000000000000000,00000000000000000000000000000000000000000000000000,00000000000000000000000000000000000000000000000000,00000000000000000000000000000000000000000000000000,00000000000100001000000000000000000000101000000000,00000111100000000000001010000000000000010000011000,00001000000010100111000000000011010000000010100000,00000000000001000000000001011100000001000000000100,01010000001000000000010000100000100100000100000001,[3, 0, 3, 0, 0, 0, 0, 0, 0, 3, 0, 0, 0, 0, 0, 3, 0, 0, 0, 0, 3, 0, 0, 2, 0, 0, 0, 0, 0, 0, 0, 0, 0, 0, 3, 0, 3, 0, 0, 0, 0, 0, 0, 2, 0, 0, 0, 0, 2, 0],[],[],[],[],[0, 0, 0, 0, 0, 0, 0, 0, 0, 0, 0, 4, 0, 0, 0, 0, 4, 0, 0, 0, 0, 0, 0, 0, 0, 0, 0, 0, 0, 0, 0, 0, 0, 0, 0, 0, 0, 0, 4, 0, 4, 0, 0, 0, 0, 0, 0, 0, 0, 0],[0, 0, 0, 0, 0, 5, 5, 5, 6, 0, 0, 0, 0, 0, 0, 0, 0, 0, 0, 0, 0, 0, 6, 0, 5, 0, 0, 0, 0, 0, 0, 0, 0, 0, 0, 0, 0, 0, 0, 6, 0, 0, 0, 0, 0, 6, 5, 0, 0, 0],[0, 0, 0, 0, 10, 0, 0, 0, 0, 0, 0, 0, 10, 0, 10, 0, 0, 9, 9, 9, 0, 0, 0, 0, 0, 0, 0, 0, 0, 0, 10, 10, 0, 9, 0, 0, 0, 0, 0, 0, 0, 0, 9, 0, 9, 0, 0, 0, 0, 0],[0, 0, 0, 0, 0, 0, 0, 0, 0, 0, 0, 0, 0, 1, 0, 0, 0, 0, 0, 0, 0, 0, 0, 0, 0, 1, 0, 1, 1, 1, 0, 0, 0, 0, 0, 0, 0, 1, 0, 0, 0, 0, 0, 0, 0, 0, 0, 1, 0, 0],[0, 8, 0, 7, 0, 0, 0, 0, 0, 0, 7, 0, 0, 0, 0, 0, 0, 0, 0, 0, 0, 7, 0, 0, 0, 0, 7, 0, 0, 0, 0, 0, 7, 0, 0, 8, 0, 0, 0, 0, 0, 8, 0, 0, 0, 0, 0, 0, 0, 7][47, 29, 13, 28, 27, 37, 25],[48, 23, 43],[20, 34, 0, 2, 36, 15, 9],[16, 38, 11, 40],[46, 6, 24, 5, 7],[39, 45, 22, 8],[10, 49, 32, 21, 3, 26],[35, 1, 41],[17, 44, 33, 42, 18, 19],[31, 4, 12, 30, 14]
11010000011110101011110100100010110100101101100001,00101111100001010100001011011101001011010010011110,00000000000000000000000000000000000000000000000000,00000000000000000000000000000000000000000000000000,00000000000000000000000000000000000000000000000000,00000000000000000000000000000000000000000000000000,00000000000000000000000000000000000000000000000000,00000000000000000000000000000000000000000000000000,00000000000000000000000000000000000000000000000000,00000000000000000000000000000000000000000000000000,[4, 5, 0, 6, 0, 0, 0, 0, 0, 4, 3, 4, 5, 0, 4, 0, 5, 0, 8, 6, 3, 8, 0, 3, 0, 0, 6, 0, 0, 0, 4, 0, 4, 8, 0, 5, 0, 0, 6, 0, 3, 6, 0, 3, 8, 0, 0, 0, 0, 8],[0, 0, 7, 0, 1, 1, 2, 10, 9, 0, 0, 0, 0, 10, 0, 1, 0, 7, 0, 0, 0, 0, 1, 0, 10, 2, 0, 10, 7, 9, 0, 1, 0, 0, 2, 0, 2, 10, 0, 2, 0, 0, 7, 0, 0, 9, 9, 1, 10, 0],[],[],[],[],[],[],[],[][15, 4, 5, 31, 22, 47],[34, 36, 6, 25, 39],[20, 10, 40, 43, 23],[11, 14, 30, 32, 9, 0],[1, 16, 35, 12],[26, 19, 41, 3, 38],[42, 28, 17, 2],[44, 49, 33, 18, 21],[29, 45, 8, 46],[27, 37, 48, 24, 7, 13]
10000000010100001000100100000000000000101001000000,00100000000001010000000011011100001010010000010110,00000000000000000000000000000000000000000000000000,00000000000000000000000000000000000000000000000000,01011000001010100001010000100011100101000100100001,00000000000000000000000000000000000000000000000000,00000111100000000110001000000000010000000010001000,00000000000000000000000000000000000000000000000000,00000000000000000000000000000000000000000000000000,00000000000000000000000000000000000000000000000000,[8, 0, 0, 0, 0, 0, 0, 0, 0, 4, 0, 4, 0, 0, 0, 0, 8, 0, 0, 0, 8, 0, 0, 4, 0, 0, 0, 0, 0, 0, 0, 0, 0, 0, 0, 0, 0, 0, 4, 0, 4, 0, 0, 8, 0, 0, 0, 0, 0, 0],[0, 0, 9, 0, 0, 0, 0, 0, 0, 0, 0, 0, 0, 9, 0, 9, 0, 0, 0, 0, 0, 0, 0, 0, 1, 1, 0, 9, 9, 9, 0, 0, 0, 0, 9, 0, 1, 0, 0, 9, 0, 0, 0, 0, 0, 1, 0, 1, 1, 0],[],[],[0, 7, 0, 3, 7, 0, 0, 0, 0, 0, 6, 0, 7, 0, 3, 0, 0, 0, 0, 3, 0, 6, 0, 0, 0, 0, 3, 0, 0, 0, 7, 7, 3, 0, 0, 3, 0, 6, 0, 0, 0, 6, 0, 0, 6, 0, 0, 0, 0, 6],[],[0, 0, 0, 0, 0, 2, 5, 10, 2, 0, 0, 0, 0, 0, 0, 0, 0, 5, 10, 0, 0, 0, 5, 0, 0, 0, 0, 0, 0, 0, 0, 0, 0, 10, 0, 0, 0, 0, 0, 0, 0, 0, 10, 0, 0, 0, 10, 0, 0, 0],[],[],[][45, 47, 25, 24, 48, 36],[8, 5],[3, 14, 19, 35, 26, 32],[38, 11, 40, 9, 23],[6, 22, 17],[41, 44, 10, 21, 49, 37],[1, 30, 12, 4, 31],[16, 0, 20, 43],[13, 39, 34, 15, 28, 2, 27, 29],[42, 7, 46, 18, 33]
00000000000000000000000000000000000000000000000000,00100000000001010000100000001100001010010000010110,00000000000000000000000000000000000000000000000000,00001110000000000101000011010001000000000000000000,00000000000000000000000000000000000000000000000000,10000000011100001000000100000000000000101001000000,00000001100000000000001000000000010000000010001000,00000000000000000000000000000000000000000000000000,01010000000010100010010000100010100101000100100001,00000000000000000000000000000000000000000000000000,[],[0, 0, 7, 0, 0, 0, 0, 0, 0, 0, 0, 0, 0, 3, 0, 7, 0, 0, 0, 0, 7, 0, 0, 0, 0, 0, 0, 0, 7, 7, 0, 0, 0, 0, 7, 0, 3, 0, 0, 7, 0, 0, 0, 0, 0, 3, 0, 3, 3, 0],[],[0, 0, 0, 0, 10, 1, 1, 0, 0, 0, 0, 0, 0, 0, 0, 0, 0, 10, 0, 1, 0, 0, 0, 0, 1, 1, 0, 10, 0, 0, 0, 10, 0, 0, 0, 0, 0, 0, 0, 0, 0, 0, 0, 0, 0, 0, 0, 0, 0, 0],[],[4, 0, 0, 0, 0, 0, 0, 0, 0, 4, 2, 4, 0, 0, 0, 0, 2, 0, 0, 0, 0, 0, 0, 4, 0, 0, 0, 0, 0, 0, 0, 0, 0, 0, 0, 0, 0, 0, 2, 0, 2, 0, 0, 4, 0, 0, 0, 0, 0, 0],[0, 0, 0, 0, 0, 0, 0, 8, 5, 0, 0, 0, 0, 0, 0, 0, 0, 0, 0, 0, 0, 0, 5, 0, 0, 0, 0, 0, 0, 0, 0, 0, 0, 5, 0, 0, 0, 0, 0, 0, 0, 0, 8, 0, 0, 0, 8, 0, 0, 0],[],[0, 9, 0, 9, 0, 0, 0, 0, 0, 0, 0, 0, 9, 0, 6, 0, 0, 0, 9, 0, 0, 6, 0, 0, 0, 0, 9, 0, 0, 0, 6, 0, 6, 0, 0, 9, 0, 9, 0, 0, 0, 6, 0, 0, 6, 0, 0, 0, 0, 6],[][19, 25, 24, 5, 6],[10, 38, 16, 40],[13, 45, 47, 36, 48],[43, 0, 9, 23, 11],[33, 22, 8],[30, 41, 44, 21, 14, 49, 32],[34, 15, 20, 39, 28, 2, 29],[46, 42, 7],[1, 37, 35, 18, 12, 3, 26],[31, 17, 4, 27]
10000000010000000000100100000000000000000001000000,00100000000001010000000000001100001010010000010110,00000000000000000000000000000000000000000000000000,00000110000000000000000011010000000001000000000000,01000000000000000000000000000000000000000000000000,00000000000100001000000000000000000000101000000000,00000001100000000000001000000000000000000000001000,00001000000010100111000000000011010000000010100000,00000000000000000000000000000000000000000000000000,00010000001000000000010000100000100100000100000001,[7, 0, 0, 0, 0, 0, 0, 0, 0, 7, 0, 0, 0, 0, 0, 0, 0, 0, 0, 0, 7, 0, 0, 7, 0, 0, 0, 0, 0, 0, 0, 0, 0, 0, 0, 0, 0, 0, 0, 0, 0, 0, 0, 7, 0, 0, 0, 0, 0, 0],[0, 0, 9, 0, 0, 0, 0, 0, 0, 0, 0, 0, 0, 9, 0, 10, 0, 0, 0, 0, 0, 0, 0, 0, 0, 0, 0, 0, 10, 10, 0, 0, 0, 0, 10, 0, 9, 0, 0, 9, 0, 0, 0, 0, 0, 9, 0, 9, 10, 0],[],[0, 0, 0, 0, 0, 5, 5, 0, 0, 0, 0, 0, 0, 0, 0, 0, 0, 0, 0, 0, 0, 0, 0, 0, 5, 5, 0, 5, 0, 0, 0, 0, 0, 0, 0, 0, 0, 5, 0, 0, 0, 0, 0, 0, 0, 0, 0, 0, 0, 0],[0, 8, 0, 0, 0, 0, 0, 0, 0, 0, 0, 0, 0, 0, 0, 0, 0, 0, 0, 0, 0, 0, 0, 0, 0, 0, 0, 0, 0, 0, 0, 0, 0, 0, 0, 0, 0, 0, 0, 0, 0, 0, 0, 0, 0, 0, 0, 0, 0, 0],[0, 0, 0, 0, 0, 0, 0, 0, 0, 0, 0, 6, 0, 0, 0, 0, 6, 0, 0, 0, 0, 0, 0, 0, 0, 0, 0, 0, 0, 0, 0, 0, 0, 0, 0, 0, 0, 0, 6, 0, 6, 0, 0, 0, 0, 0, 0, 0, 0, 0],[0, 0, 0, 0, 0, 0, 0, 3, 3, 0, 0, 0, 0, 0, 0, 0, 0, 0, 0, 0, 0, 0, 3, 0, 0, 0, 0, 0, 0, 0, 0, 0, 0, 0, 0, 0, 0, 0, 0, 0, 0, 0, 0, 0, 0, 0, 3, 0, 0, 0],[0, 0, 0, 0, 1, 0, 0, 0, 0, 0, 0, 0, 1, 0, 1, 0, 0, 2, 2, 1, 0, 0, 0, 0, 0, 0, 0, 0, 0, 0, 2, 1, 0, 1, 0, 0, 0, 0, 0, 0, 0, 0, 2, 0, 2, 0, 0, 0, 0, 0],[],[0, 0, 0, 4, 0, 0, 0, 0, 0, 0, 4, 0, 0, 0, 0, 0, 0, 0, 0, 0, 0, 4, 0, 0, 0, 0, 4, 0, 0, 0, 0, 0, 4, 0, 0, 4, 0, 0, 0, 0, 0, 4, 0, 0, 0, 0, 0, 0, 0, 4][14, 4, 31, 12, 33, 19],[30, 44, 18, 42, 17],[46, 7, 22, 8],[10, 35, 32, 26, 41, 21, 49, 3],[25, 37, 6, 24, 5, 27],[16, 38, 40, 11],[23, 20, 9, 43, 0],[1],[2, 39, 45, 47, 13, 36],[28, 29, 48, 15, 34]
10100000010000010000100100000000001010000001000010,00000000000000000000000000000000000000000000000000,00000000000000000000000000000000000000000000000000,00000000000000000000000000000000000000000000000000,00000000000000000000000000000000000000000000000000,00000000000100001000000000000000000000101000000000,00000111100000000000001010000000000000010000011000,00001000000010100111000000000011010000000010100000,00000000000001000000000001011100000001000000000100,01010000001000000000010000100000100100000100000001,[8, 0, 8, 0, 0, 0, 0, 0, 0, 8, 0, 0, 0, 0, 0, 4, 0, 0, 0, 0, 4, 0, 0, 4, 0, 0, 0, 0, 0, 0, 0, 0, 0, 0, 8, 0, 4, 0, 0, 0, 0, 0, 0, 4, 0, 0, 0, 0, 4, 0],[],[],[],[],[0, 0, 0, 0, 0, 0, 0, 0, 0, 0, 0, 7, 0, 0, 0, 0, 7, 0, 0, 0, 0, 0, 0, 0, 0, 0, 0, 0, 0, 0, 0, 0, 0, 0, 0, 0, 0, 0, 7, 0, 7, 0, 0, 0, 0, 0, 0, 0, 0, 0],[0, 0, 0, 0, 0, 1, 5, 5, 1, 0, 0, 0, 0, 0, 0, 0, 0, 0, 0, 0, 0, 0, 5, 0, 5, 0, 0, 0, 0, 0, 0, 0, 0, 0, 0, 0, 0, 0, 0, 1, 0, 0, 0, 0, 0, 1, 1, 0, 0, 0],[0, 0, 0, 0, 9, 0, 0, 0, 0, 0, 0, 0, 3, 0, 9, 0, 0, 3, 3, 9, 0, 0, 0, 0, 0, 0, 0, 0, 0, 0, 3, 9, 0, 9, 0, 0, 0, 0, 0, 0, 0, 0, 3, 0, 3, 0, 0, 0, 0, 0],[0, 0, 0, 0, 0, 0, 0, 0, 0, 0, 0, 0, 0, 6, 0, 0, 0, 0, 0, 0, 0, 0, 0, 0, 0, 6, 0, 6, 6, 6, 0, 0, 0, 0, 0, 0, 0, 6, 0, 0, 0, 0, 0, 0, 0, 0, 0, 6, 0, 0],[0, 2, 0, 10, 0, 0, 0, 0, 0, 0, 10, 0, 0, 0, 0, 0, 0, 0, 0, 0, 0, 2, 0, 0, 0, 0, 2, 0, 0, 0, 0, 0, 2, 0, 0, 10, 0, 0, 0, 0, 0, 2, 0, 0, 0, 0, 0, 0, 0, 10][8, 46, 39, 45, 5],[21, 41, 32, 1, 26],[42, 18, 12, 44, 17, 30],[15, 20, 48, 36, 23, 43],[24, 6, 22, 7],[47, 37, 28, 13, 29, 27, 25],[38, 40, 11, 16],[2, 34, 0, 9],[19, 31, 4, 33, 14],[35, 49, 10, 3]
10000000010100000000100100000000000000101001000000,00100000000001010000000011011100001010010000010110,00000000000000000000000000000000000000000000000000,00000000000000000000000000000000000000000000000000,00000000000000000000000000000000000000000000000000,00000000000000000000000000000000000000000000000000,00000111100000000000001000000000000000000000001000,00001000000010100111000000000011010000000010100000,00000000000000000000000000000000000000000000000000,01010000001000001000010000100000100101000100000001,[8, 0, 0, 0, 0, 0, 0, 0, 0, 7, 0, 8, 0, 0, 0, 0, 0, 0, 0, 0, 8, 0, 0, 8, 0, 0, 0, 0, 0, 0, 0, 0, 0, 0, 0, 0, 0, 0, 7, 0, 7, 0, 0, 7, 0, 0, 0, 0, 0, 0],[0, 0, 4, 0, 0, 0, 0, 0, 0, 0, 0, 0, 0, 9, 0, 4, 0, 0, 0, 0, 0, 0, 0, 0, 4, 4, 0, 4, 4, 9, 0, 0, 0, 0, 4, 0, 9, 0, 0, 9, 0, 0, 0, 0, 0, 4, 0, 4, 9, 0],[],[],[],[],[0, 0, 0, 0, 0, 2, 10, 10, 10, 0, 0, 0, 0, 0, 0, 0, 0, 0, 0, 0, 0, 0, 2, 0, 0, 0, 0, 0, 0, 0, 0, 0, 0, 0, 0, 0, 0, 0, 0, 0, 0, 0, 0, 0, 0, 0, 2, 0, 0, 0],[0, 0, 0, 0, 6, 0, 0, 0, 0, 0, 0, 0, 6, 0, 3, 0, 0, 3, 6, 6, 0, 0, 0, 0, 0, 0, 0, 0, 0, 0, 3, 3, 0, 6, 0, 0, 0, 0, 0, 0, 0, 0, 6, 0, 3, 0, 0, 0, 0, 0],[],[0, 1, 0, 1, 0, 0, 0, 0, 0, 0, 1, 0, 0, 0, 0, 0, 1, 0, 0, 0, 0, 1, 0, 0, 0, 0, 5, 0, 0, 0, 0, 0, 1, 0, 0, 5, 0, 1, 0, 0, 0, 5, 0, 0, 0, 0, 0, 0, 0, 5][32, 37, 21, 3, 1, 16, 10],[22, 5, 46],[44, 31, 14, 17, 30],[2, 45, 27, 25, 47, 24, 15, 34, 28],[35, 26, 41, 49],[33, 19, 18, 42, 12, 4],[38, 9, 43, 40],[11, 0, 20, 23],[29, 36, 48, 39, 13],[7, 6, 8]
00000000000000000000000000000000000000000000000000,00100000000001010000100000001100001010010000010110,10000000010100001000000100000000000000101001000000,00001110000000000101000011010001000001000000000000,00000000000000000000000000000000000000000000000000,00000000000000000000000000000000000000000000000000,00000001100000000000001000000000010000000010001000,00000000000000000000000000000000000000000000000000,00000000000000000000000000000000000000000000000000,01010000001010100010010000100010100100000100100001,[],[0, 0, 1, 0, 0, 0, 0, 0, 0, 0, 0, 0, 0, 7, 0, 1, 0, 0, 0, 0, 7, 0, 0, 0, 0, 0, 0, 0, 7, 1, 0, 0, 0, 0, 7, 0, 7, 0, 0, 1, 0, 0, 0, 0, 0, 1, 0, 7, 1, 0],[5, 0, 0, 0, 0, 0, 0, 0, 0, 2, 0, 2, 0, 0, 0, 0, 5, 0, 0, 0, 0, 0, 0, 5, 0, 0, 0, 0, 0, 0, 0, 0, 0, 0, 0, 0, 0, 0, 2, 0, 2, 0, 0, 5, 0, 0, 0, 0, 0, 0],[0, 0, 0, 0, 4, 10, 4, 0, 0, 0, 0, 0, 0, 0, 0, 0, 0, 10, 0, 4, 0, 0, 0, 0, 10, 4, 0, 10, 0, 0, 0, 4, 0, 0, 0, 0, 0, 4, 0, 0, 0, 0, 0, 0, 0, 0, 0, 0, 0, 0],[],[],[0, 0, 0, 0, 0, 0, 0, 8, 3, 0, 0, 0, 0, 0, 0, 0, 0, 0, 0, 0, 0, 0, 3, 0, 0, 0, 0, 0, 0, 0, 0, 0, 0, 8, 0, 0, 0, 0, 0, 0, 0, 0, 8, 0, 0, 0, 8, 0, 0, 0],[],[],[0, 9, 0, 9, 0, 0, 0, 0, 0, 0, 9, 0, 6, 0, 9, 0, 0, 0, 9, 0, 0, 9, 0, 0, 0, 0, 6, 0, 0, 0, 6, 0, 6, 0, 0, 6, 0, 0, 0, 0, 0, 9, 0, 0, 9, 0, 0, 0, 0, 6][39, 45, 15, 48, 2, 29],[9, 38, 40, 11],[22, 8],[25, 37, 19, 6, 4, 31],[23, 16, 0, 43],[26, 32, 12, 30, 49, 35],[28, 20, 47, 36, 13, 34],[33, 46, 42, 7],[18, 14, 1, 41, 44, 10, 3, 21],[17, 27, 24, 5]
00000000000000000000000000000000000000000000000000,10100110010001010000100011001100001010010000010110,00000000000000000000000000000000000000000000000000,00000000000000000000000000000000000000000000000000,01010000001100001000010100100000000100101101100001,00000000000000000000000000000000000000000000000000,00000000000000000000000000000000000000000000000000,00000000000000000000000000000000000000000000000000,00001001100010100111001000010011110001000010001000,00000000000000000000000000000000000000000000000000,[],[8, 0, 7, 0, 0, 2, 7, 0, 0, 6, 0, 0, 0, 6, 0, 8, 0, 0, 0, 0, 7, 0, 0, 0, 6, 6, 0, 0, 7, 2, 0, 0, 0, 0, 6, 0, 6, 0, 0, 7, 0, 0, 0, 0, 0, 2, 0, 8, 8, 0],[],[],[0, 9, 0, 9, 0, 0, 0, 0, 0, 0, 9, 4, 0, 0, 0, 0, 5, 0, 0, 0, 0, 5, 0, 5, 0, 0, 9, 0, 0, 0, 0, 0, 0, 0, 0, 9, 0, 0, 5, 0, 4, 9, 0, 4, 9, 0, 0, 0, 0, 5],[],[],[],[0, 0, 0, 0, 1, 0, 0, 1, 1, 0, 0, 0, 3, 0, 3, 0, 0, 1, 10, 1, 0, 0, 3, 0, 0, 0, 0, 10, 0, 0, 1, 3, 10, 10, 0, 0, 0, 3, 0, 0, 0, 0, 10, 0, 0, 0, 10, 0, 0, 0],[][4, 8, 17, 7, 30, 19],[5, 45, 29],[37, 14, 12, 31, 22],[43, 40, 11],[49, 23, 38, 16, 21],[34, 36, 25, 24, 9, 13],[2, 20, 28, 39, 6],[15, 0, 48, 47],[3, 10, 1, 26, 35, 44, 41],[32, 33, 42, 46, 18, 27]
00000000000000000000000000000000000000000000000000,00000000000000000000000000000000000000000000000000,00000000000000000000000000000000000000000000000000,00000000000000000000000000000000000000000000000000,01000000000001000000000001011100001011000000000110,10100000010100011000100100000000000000101001000000,00000111100000000000001010000000000000010000011000,00001000000010100111000000000011010000000010100000,00000000000000000000000000000000000000000000000000,00010000001000000000010000100000100100000100000001,[],[],[],[],[0, 9, 0, 0, 0, 0, 0, 0, 0, 0, 0, 0, 0, 7, 0, 0, 0, 0, 0, 0, 0, 0, 0, 0, 0, 9, 0, 9, 7, 9, 0, 0, 0, 0, 9, 0, 9, 9, 0, 0, 0, 0, 0, 0, 0, 0, 0, 7, 9, 0],[6, 0, 1, 0, 0, 0, 0, 0, 0, 1, 0, 6, 0, 0, 0, 6, 6, 0, 0, 0, 1, 0, 0, 6, 0, 0, 0, 0, 0, 0, 0, 0, 0, 0, 0, 0, 0, 0, 6, 0, 1, 0, 0, 1, 0, 0, 0, 0, 0, 0],[0, 0, 0, 0, 0, 2, 2, 2, 3, 0, 0, 0, 0, 0, 0, 0, 0, 0, 0, 0, 0, 0, 3, 0, 2, 0, 0, 0, 0, 0, 0, 0, 0, 0, 0, 0, 0, 0, 0, 3, 0, 0, 0, 0, 0, 3, 3, 0, 0, 0],[0, 0, 0, 0, 4, 0, 0, 0, 0, 0, 0, 0, 4, 0, 5, 0, 0, 4, 4, 5, 0, 0, 0, 0, 0, 0, 0, 0, 0, 0, 4, 4, 0, 5, 0, 0, 0, 0, 0, 0, 0, 0, 5, 0, 4, 0, 0, 0, 0, 0],[],[0, 0, 0, 10, 0, 0, 0, 0, 0, 0, 10, 0, 0, 0, 0, 0, 0, 0, 0, 0, 0, 10, 0, 0, 0, 0, 8, 0, 0, 0, 0, 0, 8, 0, 0, 10, 0, 0, 0, 0, 0, 8, 0, 0, 0, 0, 0, 0, 0, 8][9, 40, 20, 2, 43],[5, 7, 24, 6],[39, 22, 8, 46, 45],[12, 17, 4, 44, 31, 30, 18],[42, 33, 14, 19],[38, 16, 11, 15, 0, 23],[47, 13, 28],[32, 26, 41, 49],[1, 34, 27, 37, 25, 36, 48, 29],[35, 3, 10, 21]
10000000010100001000100100000000000000101001000000,00100000000001010000000000001100001010010000010110,00000000000000000000000000000000000000000000000000,00001111100000000111001011010001010001000010001000,01010000001010100000010000100010100100000100100001,00000000000000000000000000000000000000000000000000,00000000000000000000000000000000000000000000000000,00000000000000000000000000000000000000000000000000,00000000000000000000000000000000000000000000000000,00000000000000000000000000000000000000000000000000,[1, 0, 0, 0, 0, 0, 0, 0, 0, 1, 0, 2, 0, 0, 0, 0, 1, 0, 0, 0, 2, 0, 0, 2, 0, 0, 0, 0, 0, 0, 0, 0, 0, 0, 0, 0, 0, 0, 1, 0, 2, 0, 0, 1, 0, 0, 0, 0, 0, 0],[0, 0, 5, 0, 0, 0, 0, 0, 0, 0, 0, 0, 0, 5, 0, 4, 0, 0, 0, 0, 0, 0, 0, 0, 0, 0, 0, 0, 4, 4, 0, 0, 0, 0, 4, 0, 5, 0, 0, 5, 0, 0, 0, 0, 0, 4, 0, 4, 4, 0],[],[0, 0, 0, 0, 6, 9, 10, 9, 6, 0, 0, 0, 0, 0, 0, 0, 0, 10, 10, 6, 0, 0, 9, 0, 9, 9, 0, 6, 0, 0, 0, 6, 0, 6, 0, 0, 0, 10, 0, 0, 0, 0, 9, 0, 0, 0, 9, 0, 0, 0],[0, 3, 0, 7, 0, 0, 0, 0, 0, 0, 3, 0, 8, 0, 7, 0, 0, 0, 0, 0, 0, 7, 0, 0, 0, 0, 7, 0, 0, 0, 3, 0, 3, 0, 0, 3, 0, 0, 0, 0, 0, 8, 0, 0, 8, 0, 0, 0, 0, 3],[],[],[],[],[][43, 38, 16, 9, 0],[23, 20, 40, 11],[49, 1, 10, 35, 32, 30],[29, 28, 15, 34, 48, 45, 47],[2, 39, 13, 36],[27, 8, 33, 4, 19, 31],[21, 14, 3, 26],[12, 44, 41],[24, 5, 42, 22, 7, 46, 25],[6, 17, 37, 18]
10000000010000000000100100000000000000000001000000,00100000000001010000000011011100001010010000010110,00000000000100001000000000000000000000101000000000,00000000000000000000000000000000000000000000000000,00000000000000000000000000000000000000000000000000,00000000000000000000000000000000000000000000000000,00000111100000000000001000000000000000000000001000,00001000000010100111000000000011010000000010100000,00000000000000000000000000000000000000000000000000,01010000001000000000010000100000100101000100000001,[6, 0, 0, 0, 0, 0, 0, 0, 0, 6, 0, 0, 0, 0, 0, 0, 0, 0, 0, 0, 6, 0, 0, 6, 0, 0, 0, 0, 0, 0, 0, 0, 0, 0, 0, 0, 0, 0, 0, 0, 0, 0, 0, 6, 0, 0, 0, 0, 0, 0],[0, 0, 1, 0, 0, 0, 0, 0, 0, 0, 0, 0, 0, 1, 0, 1, 0, 0, 0, 0, 0, 0, 0, 0, 9, 1, 0, 1, 1, 9, 0, 0, 0, 0, 1, 0, 9, 0, 0, 9, 0, 0, 0, 0, 0, 9, 0, 1, 9, 0],[0, 0, 0, 0, 0, 0, 0, 0, 0, 0, 0, 2, 0, 0, 0, 0, 2, 0, 0, 0, 0, 0, 0, 0, 0, 0, 0, 0, 0, 0, 0, 0, 0, 0, 0, 0, 0, 0, 2, 0, 2, 0, 0, 0, 0, 0, 0, 0, 0, 0],[],[],[],[0, 0, 0, 0, 0, 4, 10, 10, 4, 0, 0, 0, 0, 0, 0, 0, 0, 0, 0, 0, 0, 0, 4, 0, 0, 0, 0, 0, 0, 0, 0, 0, 0, 0, 0, 0, 0, 0, 0, 0, 0, 0, 0, 0, 0, 0, 4, 0, 0, 0],[0, 0, 0, 0, 7, 0, 0, 0, 0, 0, 0, 0, 7, 0, 7, 0, 0, 5, 5, 7, 0, 0, 0, 0, 0, 0, 0, 0, 0, 0, 7, 5, 0, 7, 0, 0, 0, 0, 0, 0, 0, 0, 5, 0, 7, 0, 0, 0, 0, 0],[],[0, 3, 0, 8, 0, 0, 0, 0, 0, 0, 8, 0, 0, 0, 0, 0, 0, 0, 0, 0, 0, 3, 0, 0, 0, 0, 3, 0, 0, 0, 0, 0, 8, 0, 0, 3, 0, 8, 0, 0, 0, 3, 0, 0, 0, 0, 0, 0, 0, 3][28, 27, 25, 34, 15, 47, 13, 2],[38, 16, 11, 40],[21, 1, 49, 26, 35, 41],[5, 22, 8, 46],[18, 31, 17, 42],[9, 0, 20, 43, 23],[12, 30, 44, 4, 19, 33, 14],[3, 32, 37, 10],[48, 36, 39, 45, 29, 24],[6, 7]
00000000000000000000000000000000000000000000000000,00100000000001010000100000001100001010010000010110,10000000011100001000000100000000000000101001000000,00001110000000000111000011010001000001000000000000,01010000000010100000010000100010100100000100100001,00000000000000000000000000000000000000000000000000,00000001100000000000001000000000010000000010001000,00000000000000000000000000000000000000000000000000,00000000000000000000000000000000000000000000000000,00000000000000000000000000000000000000000000000000,[],[0, 0, 4, 0, 0, 0, 0, 0, 0, 0, 0, 0, 0, 7, 0, 7, 0, 0, 0, 0, 4, 0, 0, 0, 0, 0, 0, 0, 4, 7, 0, 0, 0, 0, 4, 0, 4, 0, 0, 7, 0, 0, 0, 0, 0, 7, 0, 4, 7, 0],[3, 0, 0, 0, 0, 0, 0, 0, 0, 6, 3, 6, 0, 0, 0, 0, 6, 0, 0, 0, 0, 0, 0, 3, 0, 0, 0, 0, 0, 0, 0, 0, 0, 0, 0, 0, 0, 0, 3, 0, 6, 0, 0, 3, 0, 0, 0, 0, 0, 0],[0, 0, 0, 0, 1, 1, 1, 0, 0, 0, 0, 0, 0, 0, 0, 0, 0, 10, 10, 10, 0, 0, 0, 0, 1, 10, 0, 1, 0, 0, 0, 1, 0, 0, 0, 0, 0, 10, 0, 0, 0, 0, 0, 0, 0, 0, 0, 0, 0, 0],[0, 2, 0, 9, 0, 0, 0, 0, 0, 0, 0, 0, 9, 0, 9, 0, 0, 0, 0, 0, 0, 2, 0, 0, 0, 0, 9, 0, 0, 0, 2, 0, 2, 0, 0, 2, 0, 0, 0, 0, 0, 9, 0, 0, 9, 0, 0, 0, 0, 2],[],[0, 0, 0, 0, 0, 0, 0, 8, 8, 0, 0, 0, 0, 0, 0, 0, 0, 0, 0, 0, 0, 0, 5, 0, 0, 0, 0, 0, 0, 0, 0, 0, 0, 8, 0, 0, 0, 0, 0, 0, 0, 0, 5, 0, 0, 0, 5, 0, 0, 0],[],[],[][31, 5, 24, 6, 27, 4],[30, 35, 21, 49, 1, 32],[23, 10, 38, 0, 43],[47, 28, 34, 2, 36, 20],[22, 42, 46],[9, 16, 40, 11],[13, 39, 29, 15, 45, 48],[7, 8, 33],[3, 41, 44, 14, 12, 26],[18, 17, 25, 37, 19]
10100000010001010000100100000000001010000001000010,00000000000000000000000000000000000000000000000000,00000000000000000000000000000000000000000000000000,00000110000000000000000011011100000001010000010100,01010000001000000000000000100000000100000000000000,00000000000100001000000000000000000000101000000000,00000001100000000000001000000000000000000000001000,00001000000010100111010000000011110000000110100001,00000000000000000000000000000000000000000000000000,00000000000000000000000000000000000000000000000000,[4, 0, 5, 0, 0, 0, 0, 0, 0, 4, 0, 0, 0, 5, 0, 4, 0, 0, 0, 0, 4, 0, 0, 5, 0, 0, 0, 0, 0, 0, 0, 0, 0, 0, 4, 0, 4, 0, 0, 0, 0, 0, 0, 4, 0, 0, 0, 0, 5, 0],[],[],[0, 0, 0, 0, 0, 1, 3, 0, 0, 0, 0, 0, 0, 0, 0, 0, 0, 0, 0, 0, 0, 0, 0, 0, 3, 3, 0, 3, 1, 1, 0, 0, 0, 0, 0, 0, 0, 3, 0, 1, 0, 0, 0, 0, 0, 1, 0, 3, 0, 0],[0, 10, 0, 8, 0, 0, 0, 0, 0, 0, 10, 0, 0, 0, 0, 0, 0, 0, 0, 0, 0, 0, 0, 0, 0, 0, 8, 0, 0, 0, 0, 0, 0, 0, 0, 8, 0, 0, 0, 0, 0, 0, 0, 0, 0, 0, 0, 0, 0, 0],[0, 0, 0, 0, 0, 0, 0, 0, 0, 0, 0, 6, 0, 0, 0, 0, 6, 0, 0, 0, 0, 0, 0, 0, 0, 0, 0, 0, 0, 0, 0, 0, 0, 0, 0, 0, 0, 0, 6, 0, 6, 0, 0, 0, 0, 0, 0, 0, 0, 0],[0, 0, 0, 0, 0, 0, 0, 2, 2, 0, 0, 0, 0, 0, 0, 0, 0, 0, 0, 0, 0, 0, 2, 0, 0, 0, 0, 0, 0, 0, 0, 0, 0, 0, 0, 0, 0, 0, 0, 0, 0, 0, 0, 0, 0, 0, 2, 0, 0, 0],[0, 0, 0, 0, 9, 0, 0, 0, 0, 0, 0, 0, 9, 0, 7, 0, 0, 9, 9, 7, 0, 9, 0, 0, 0, 0, 0, 0, 0, 0, 7, 7, 9, 7, 0, 0, 0, 0, 0, 0, 0, 9, 7, 0, 9, 0, 0, 0, 0, 9],[],[][5, 39, 45, 29, 28],[7, 22, 46, 8],[47, 37, 27, 6, 25, 24],[43, 15, 34, 36, 20, 9, 0],[13, 48, 2, 23],[11, 40, 38, 16],[42, 33, 30, 31, 19, 14],[3, 26, 35],[17, 4, 21, 49, 32, 18, 12, 41, 44],[1, 10]
